db/data/197922973320957329622426313691508724745.z3.out
sat
-------------------
13.243513072
